c ind 10 13 15 16 25 28 39 41 43 45 0
c ind 5 53 6 69 78 9 93 0
p cnf 287 1263
-1 -2 11 0
-1 2 92 0
-100 -52 16 0
-100 52 47 0
-101 -55 16 0
-101 55 102 0
-102 -60 16 0
-102 60 103 0
-103 -64 104 0
-103 64 105 0
-104 -68 16 0
-104 68 47 0
-105 -71 16 0
-105 71 106 0
-106 -74 107 0
-106 74 108 0
-107 -77 16 0
-107 77 47 0
-108 -80 16 0
-108 80 109 0
-109 -83 16 0
-109 83 110 0
-11 -12 14 0
-11 12 17 0
-110 -86 104 0
-110 86 111 0
-111 -88 16 0
-111 88 112 0
-112 -90 107 0
-112 90 47 0
-113 -114 92 0
-113 114 132 0
-114 -22 115 0
-114 22 55 0
-115 -30 16 0
-115 30 116 0
-116 -32 117 0
-116 32 55 0
-117 -35 16 0
-117 35 118 0
-118 -47 119 0
-118 47 120 0
-119 -52 13 0
-119 52 55 0
-12 -13 9 0
-12 -9 13 0
-120 -55 16 0
-120 55 121 0
-121 -60 16 0
-121 60 122 0
-122 -64 123 0
-122 64 124 0
-123 -68 16 0
-123 68 55 0
-124 -71 16 0
-124 71 125 0
-125 -74 126 0
-125 74 127 0
-126 -77 16 0
-126 77 55 0
-127 -80 16 0
-127 80 128 0
-128 -83 16 0
-128 83 129 0
-129 -86 123 0
-129 86 130 0
-130 -88 16 0
-130 88 131 0
-131 -90 126 0
-131 90 55 0
-132 -133 92 0
-132 133 151 0
-133 -22 134 0
-133 22 60 0
-134 -30 16 0
-134 30 135 0
-135 -32 136 0
-135 32 60 0
-136 -35 16 0
-136 35 137 0
-137 -47 138 0
-137 47 139 0
-138 -52 16 0
-138 52 60 0
-139 -55 13 0
-139 55 140 0
-14 -15 16 0
-14 -16 15 0
-140 -60 16 0
-140 60 141 0
-141 -64 142 0
-141 64 143 0
-142 -68 16 0
-142 68 60 0
-143 -71 16 0
-143 71 144 0
-144 -74 145 0
-144 74 146 0
-145 -77 16 0
-145 77 60 0
-146 -80 16 0
-146 80 147 0
-147 -83 16 0
-147 83 148 0
-148 -86 142 0
-148 86 149 0
-149 -88 16 0
-149 88 150 0
-150 -90 145 0
-150 90 60 0
-151 -152 92 0
-151 152 170 0
-152 -22 153 0
-152 22 64 0
-153 -30 16 0
-153 30 154 0
-154 -32 155 0
-154 32 64 0
-155 -35 16 0
-155 35 156 0
-156 -47 157 0
-156 47 158 0
-157 -52 16 0
-157 52 64 0
-158 -55 16 0
-158 55 159 0
-159 -60 13 0
-159 60 160 0
-16 0
-160 -64 161 0
-160 64 162 0
-161 -68 16 0
-161 68 64 0
-162 -71 16 0
-162 71 163 0
-163 -74 164 0
-163 74 165 0
-164 -77 16 0
-164 77 64 0
-165 -80 16 0
-165 80 166 0
-166 -83 16 0
-166 83 167 0
-167 -86 161 0
-167 86 168 0
-168 -88 16 0
-168 88 169 0
-169 -90 164 0
-169 90 64 0
-17 -18 20 0
-17 18 92 0
-170 -171 92 0
-170 171 190 0
-171 -22 172 0
-171 22 71 0
-172 -30 16 0
-172 30 173 0
-173 -32 174 0
-173 32 71 0
-174 -35 16 0
-174 35 175 0
-175 -47 176 0
-175 47 177 0
-176 -52 16 0
-176 52 71 0
-177 -55 16 0
-177 55 178 0
-178 -60 16 0
-178 60 179 0
-179 -64 180 0
-179 64 181 0
-18 19 0
-18 3 0
-180 -68 13 0
-180 68 71 0
-181 -71 16 0
-181 71 182 0
-182 -74 183 0
-182 74 184 0
-183 -77 16 0
-183 77 71 0
-184 -80 16 0
-184 80 185 0
-185 -83 16 0
-185 83 186 0
-186 -86 187 0
-186 86 188 0
-187 -68 16 0
-187 68 71 0
-188 -88 16 0
-188 88 189 0
-189 -90 183 0
-189 90 71 0
-19 -13 5 0
-19 -5 13 0
-190 -191 92 0
-190 191 209 0
-191 -22 192 0
-191 22 74 0
-192 -30 16 0
-192 30 193 0
-193 -32 194 0
-193 32 74 0
-194 -35 16 0
-194 35 195 0
-195 -47 196 0
-195 47 197 0
-196 -52 16 0
-196 52 74 0
-197 -55 16 0
-197 55 198 0
-198 -60 16 0
-198 60 199 0
-199 -64 200 0
-199 64 201 0
-2 3 7 0
-20 -21 92 0
-20 21 94 0
-200 -68 16 0
-200 68 74 0
-201 -71 13 0
-201 71 202 0
-202 -74 203 0
-202 74 204 0
-203 -77 16 0
-203 77 74 0
-204 -80 16 0
-204 80 205 0
-205 -83 16 0
-205 83 206 0
-206 -86 200 0
-206 86 207 0
-207 -88 16 0
-207 88 208 0
-208 -90 203 0
-208 90 74 0
-209 -210 92 0
-209 210 229 0
-21 -22 29 0
-21 22 35 0
-210 -22 211 0
-210 22 80 0
-211 -30 16 0
-211 30 212 0
-212 -32 213 0
-212 32 80 0
-213 -35 16 0
-213 35 214 0
-214 -47 215 0
-214 47 216 0
-215 -52 16 0
-215 52 80 0
-216 -55 16 0
-216 55 217 0
-217 -60 16 0
-217 60 218 0
-218 -64 219 0
-218 64 220 0
-219 -68 16 0
-219 68 80 0
-22 23 26 0
-220 -71 16 0
-220 71 221 0
-221 -74 222 0
-221 74 223 0
-222 -77 13 0
-222 77 80 0
-223 -80 16 0
-223 80 224 0
-224 -83 16 0
-224 83 225 0
-225 -86 219 0
-225 86 226 0
-226 -88 16 0
-226 88 227 0
-227 -90 228 0
-227 90 80 0
-228 -77 16 0
-228 77 80 0
-229 -230 92 0
-229 230 248 0
-23 -24 0
-230 -22 231 0
-230 22 83 0
-231 -30 16 0
-231 30 232 0
-232 -32 233 0
-232 32 83 0
-233 -35 16 0
-233 35 234 0
-234 -47 235 0
-234 47 236 0
-235 -52 16 0
-235 52 83 0
-236 -55 16 0
-236 55 237 0
-237 -60 16 0
-237 60 238 0
-238 -64 239 0
-238 64 240 0
-239 -68 16 0
-239 68 83 0
-24 -25 6 0
-24 -6 25 0
-240 -71 16 0
-240 71 241 0
-241 -74 242 0
-241 74 243 0
-242 -77 16 0
-242 77 83 0
-243 -80 13 0
-243 80 244 0
-244 -83 16 0
-244 83 245 0
-245 -86 239 0
-245 86 246 0
-246 -88 16 0
-246 88 247 0
-247 -90 242 0
-247 90 83 0
-248 -249 92 0
-248 249 267 0
-249 -22 250 0
-249 22 86 0
-250 -30 16 0
-250 30 251 0
-251 -32 252 0
-251 32 86 0
-252 -35 16 0
-252 35 253 0
-253 -47 254 0
-253 47 255 0
-254 -52 16 0
-254 52 86 0
-255 -55 16 0
-255 55 256 0
-256 -60 16 0
-256 60 257 0
-257 -64 258 0
-257 64 259 0
-258 -68 16 0
-258 68 86 0
-259 -71 16 0
-259 71 260 0
-26 -27 0
-260 -74 261 0
-260 74 262 0
-261 -77 16 0
-261 77 86 0
-262 -80 16 0
-262 80 263 0
-263 -83 13 0
-263 83 264 0
-264 -86 258 0
-264 86 265 0
-265 -88 16 0
-265 88 266 0
-266 -90 261 0
-266 90 86 0
-267 -268 287 0
-267 268 14 0
-268 -22 269 0
-268 22 88 0
-269 -30 16 0
-269 30 270 0
-27 -10 28 0
-27 -28 10 0
-270 -32 271 0
-270 32 88 0
-271 -35 16 0
-271 35 272 0
-272 -47 273 0
-272 47 274 0
-273 -52 16 0
-273 52 88 0
-274 -55 16 0
-274 55 275 0
-275 -60 16 0
-275 60 276 0
-276 -64 277 0
-276 64 278 0
-277 -68 16 0
-277 68 88 0
-278 -71 16 0
-278 71 279 0
-279 -74 280 0
-279 74 281 0
-280 -77 16 0
-280 77 88 0
-281 -80 16 0
-281 80 282 0
-282 -83 16 0
-282 83 283 0
-283 -86 284 0
-283 86 285 0
-284 -68 13 0
-284 68 88 0
-285 -88 16 0
-285 88 286 0
-286 -90 280 0
-286 90 88 0
-287 -13 15 0
-287 -15 13 0
-29 -30 13 0
-29 30 31 0
-3 -4 0
-30 -10 13 0
-30 -13 10 0
-31 -32 34 0
-31 32 35 0
-32 23 0
-32 33 0
-33 -13 6 0
-33 -6 13 0
-34 -35 16 0
-34 35 46 0
-35 36 0
-35 44 0
-36 37 0
-36 42 0
-37 38 0
-37 40 0
-38 -16 39 0
-38 -39 16 0
-4 -5 6 0
-4 -6 5 0
-40 -16 41 0
-40 -41 16 0
-42 -16 43 0
-42 -43 16 0
-44 -16 45 0
-44 -45 16 0
-46 -47 51 0
-46 47 54 0
-47 44 0
-47 48 0
-48 42 0
-48 49 0
-49 40 0
-49 50 0
-50 -13 39 0
-50 -39 13 0
-51 -52 16 0
-51 52 35 0
-52 -13 53 0
-52 -53 13 0
-54 -55 16 0
-54 55 59 0
-55 44 0
-55 56 0
-56 42 0
-56 57 0
-57 38 0
-57 58 0
-58 -13 41 0
-58 -41 13 0
-59 -60 16 0
-59 60 63 0
-60 44 0
-60 61 0
-61 42 0
-61 62 0
-62 50 0
-62 58 0
-63 -64 67 0
-63 64 70 0
-64 44 0
-64 65 0
-65 37 0
-65 66 0
-66 -13 43 0
-66 -43 13 0
-67 -68 16 0
-67 68 35 0
-68 -13 69 0
-68 -69 13 0
-7 -8 0
-70 -71 16 0
-70 71 73 0
-71 44 0
-71 72 0
-72 49 0
-72 66 0
-73 -74 76 0
-73 74 79 0
-74 56 0
-74 75 0
-75 -13 45 0
-75 -45 13 0
-76 -77 16 0
-76 77 35 0
-77 -13 78 0
-77 -78 13 0
-79 -80 16 0
-79 80 82 0
-8 -10 9 0
-8 -9 10 0
-80 44 0
-80 81 0
-81 57 0
-81 66 0
-82 -83 16 0
-82 83 85 0
-83 44 0
-83 84 0
-84 62 0
-84 66 0
-85 -86 67 0
-85 86 87 0
-86 36 0
-86 75 0
-87 -88 16 0
-87 88 89 0
-88 48 0
-88 75 0
-89 -90 91 0
-89 90 35 0
-90 61 0
-90 75 0
-91 -77 13 0
-91 77 35 0
-92 -15 93 0
-92 -93 15 0
-94 -95 92 0
-94 95 113 0
-95 -22 96 0
-95 22 47 0
-96 -30 16 0
-96 30 97 0
-97 -32 98 0
-97 32 47 0
-98 -35 13 0
-98 35 99 0
-99 -47 100 0
-99 47 101 0
1 -11 -92 0
1 -2 -11 0
1 0
1 2 -92 0
100 -16 -47 0
100 -52 -16 0
100 52 -47 0
101 -16 -102 0
101 -55 -16 0
101 55 -102 0
102 -16 -103 0
102 -60 -16 0
102 60 -103 0
103 -104 -105 0
103 -64 -104 0
103 64 -105 0
104 -16 -47 0
104 -68 -16 0
104 68 -47 0
105 -16 -106 0
105 -71 -16 0
105 71 -106 0
106 -107 -108 0
106 -74 -107 0
106 74 -108 0
107 -16 -47 0
107 -77 -16 0
107 77 -47 0
108 -16 -109 0
108 -80 -16 0
108 80 -109 0
109 -16 -110 0
109 -83 -16 0
109 83 -110 0
11 -12 -14 0
11 -14 -17 0
11 12 -17 0
110 -104 -111 0
110 -86 -104 0
110 86 -111 0
111 -16 -112 0
111 -88 -16 0
111 88 -112 0
112 -107 -47 0
112 -90 -107 0
112 90 -47 0
113 -114 -92 0
113 -92 -132 0
113 114 -132 0
114 -115 -55 0
114 -22 -115 0
114 22 -55 0
115 -16 -116 0
115 -30 -16 0
115 30 -116 0
116 -117 -55 0
116 -32 -117 0
116 32 -55 0
117 -16 -118 0
117 -35 -16 0
117 35 -118 0
118 -119 -120 0
118 -47 -119 0
118 47 -120 0
119 -13 -55 0
119 -52 -13 0
119 52 -55 0
12 -9 -13 0
12 9 13 0
120 -16 -121 0
120 -55 -16 0
120 55 -121 0
121 -16 -122 0
121 -60 -16 0
121 60 -122 0
122 -123 -124 0
122 -64 -123 0
122 64 -124 0
123 -16 -55 0
123 -68 -16 0
123 68 -55 0
124 -16 -125 0
124 -71 -16 0
124 71 -125 0
125 -126 -127 0
125 -74 -126 0
125 74 -127 0
126 -16 -55 0
126 -77 -16 0
126 77 -55 0
127 -16 -128 0
127 -80 -16 0
127 80 -128 0
128 -16 -129 0
128 -83 -16 0
128 83 -129 0
129 -123 -130 0
129 -86 -123 0
129 86 -130 0
13 0
130 -16 -131 0
130 -88 -16 0
130 88 -131 0
131 -126 -55 0
131 -90 -126 0
131 90 -55 0
132 -133 -92 0
132 -92 -151 0
132 133 -151 0
133 -134 -60 0
133 -22 -134 0
133 22 -60 0
134 -16 -135 0
134 -30 -16 0
134 30 -135 0
135 -136 -60 0
135 -32 -136 0
135 32 -60 0
136 -16 -137 0
136 -35 -16 0
136 35 -137 0
137 -138 -139 0
137 -47 -138 0
137 47 -139 0
138 -16 -60 0
138 -52 -16 0
138 52 -60 0
139 -13 -140 0
139 -55 -13 0
139 55 -140 0
14 -15 -16 0
14 15 16 0
140 -16 -141 0
140 -60 -16 0
140 60 -141 0
141 -142 -143 0
141 -64 -142 0
141 64 -143 0
142 -16 -60 0
142 -68 -16 0
142 68 -60 0
143 -16 -144 0
143 -71 -16 0
143 71 -144 0
144 -145 -146 0
144 -74 -145 0
144 74 -146 0
145 -16 -60 0
145 -77 -16 0
145 77 -60 0
146 -16 -147 0
146 -80 -16 0
146 80 -147 0
147 -16 -148 0
147 -83 -16 0
147 83 -148 0
148 -142 -149 0
148 -86 -142 0
148 86 -149 0
149 -16 -150 0
149 -88 -16 0
149 88 -150 0
150 -145 -60 0
150 -90 -145 0
150 90 -60 0
151 -152 -92 0
151 -92 -170 0
151 152 -170 0
152 -153 -64 0
152 -22 -153 0
152 22 -64 0
153 -16 -154 0
153 -30 -16 0
153 30 -154 0
154 -155 -64 0
154 -32 -155 0
154 32 -64 0
155 -16 -156 0
155 -35 -16 0
155 35 -156 0
156 -157 -158 0
156 -47 -157 0
156 47 -158 0
157 -16 -64 0
157 -52 -16 0
157 52 -64 0
158 -16 -159 0
158 -55 -16 0
158 55 -159 0
159 -13 -160 0
159 -60 -13 0
159 60 -160 0
160 -161 -162 0
160 -64 -161 0
160 64 -162 0
161 -16 -64 0
161 -68 -16 0
161 68 -64 0
162 -16 -163 0
162 -71 -16 0
162 71 -163 0
163 -164 -165 0
163 -74 -164 0
163 74 -165 0
164 -16 -64 0
164 -77 -16 0
164 77 -64 0
165 -16 -166 0
165 -80 -16 0
165 80 -166 0
166 -16 -167 0
166 -83 -16 0
166 83 -167 0
167 -161 -168 0
167 -86 -161 0
167 86 -168 0
168 -16 -169 0
168 -88 -16 0
168 88 -169 0
169 -164 -64 0
169 -90 -164 0
169 90 -64 0
17 -18 -20 0
17 -20 -92 0
17 18 -92 0
170 -171 -92 0
170 -92 -190 0
170 171 -190 0
171 -172 -71 0
171 -22 -172 0
171 22 -71 0
172 -16 -173 0
172 -30 -16 0
172 30 -173 0
173 -174 -71 0
173 -32 -174 0
173 32 -71 0
174 -16 -175 0
174 -35 -16 0
174 35 -175 0
175 -176 -177 0
175 -47 -176 0
175 47 -177 0
176 -16 -71 0
176 -52 -16 0
176 52 -71 0
177 -16 -178 0
177 -55 -16 0
177 55 -178 0
178 -16 -179 0
178 -60 -16 0
178 60 -179 0
179 -180 -181 0
179 -64 -180 0
179 64 -181 0
18 -3 -19 0
180 -13 -71 0
180 -68 -13 0
180 68 -71 0
181 -16 -182 0
181 -71 -16 0
181 71 -182 0
182 -183 -184 0
182 -74 -183 0
182 74 -184 0
183 -16 -71 0
183 -77 -16 0
183 77 -71 0
184 -16 -185 0
184 -80 -16 0
184 80 -185 0
185 -16 -186 0
185 -83 -16 0
185 83 -186 0
186 -187 -188 0
186 -86 -187 0
186 86 -188 0
187 -16 -71 0
187 -68 -16 0
187 68 -71 0
188 -16 -189 0
188 -88 -16 0
188 88 -189 0
189 -183 -71 0
189 -90 -183 0
189 90 -71 0
19 -5 -13 0
19 5 13 0
190 -191 -92 0
190 -92 -209 0
190 191 -209 0
191 -192 -74 0
191 -22 -192 0
191 22 -74 0
192 -16 -193 0
192 -30 -16 0
192 30 -193 0
193 -194 -74 0
193 -32 -194 0
193 32 -74 0
194 -16 -195 0
194 -35 -16 0
194 35 -195 0
195 -196 -197 0
195 -47 -196 0
195 47 -197 0
196 -16 -74 0
196 -52 -16 0
196 52 -74 0
197 -16 -198 0
197 -55 -16 0
197 55 -198 0
198 -16 -199 0
198 -60 -16 0
198 60 -199 0
199 -200 -201 0
199 -64 -200 0
199 64 -201 0
2 -3 0
2 -7 0
20 -21 -92 0
20 -92 -94 0
20 21 -94 0
200 -16 -74 0
200 -68 -16 0
200 68 -74 0
201 -13 -202 0
201 -71 -13 0
201 71 -202 0
202 -203 -204 0
202 -74 -203 0
202 74 -204 0
203 -16 -74 0
203 -77 -16 0
203 77 -74 0
204 -16 -205 0
204 -80 -16 0
204 80 -205 0
205 -16 -206 0
205 -83 -16 0
205 83 -206 0
206 -200 -207 0
206 -86 -200 0
206 86 -207 0
207 -16 -208 0
207 -88 -16 0
207 88 -208 0
208 -203 -74 0
208 -90 -203 0
208 90 -74 0
209 -210 -92 0
209 -92 -229 0
209 210 -229 0
21 -22 -29 0
21 -29 -35 0
21 22 -35 0
210 -211 -80 0
210 -22 -211 0
210 22 -80 0
211 -16 -212 0
211 -30 -16 0
211 30 -212 0
212 -213 -80 0
212 -32 -213 0
212 32 -80 0
213 -16 -214 0
213 -35 -16 0
213 35 -214 0
214 -215 -216 0
214 -47 -215 0
214 47 -216 0
215 -16 -80 0
215 -52 -16 0
215 52 -80 0
216 -16 -217 0
216 -55 -16 0
216 55 -217 0
217 -16 -218 0
217 -60 -16 0
217 60 -218 0
218 -219 -220 0
218 -64 -219 0
218 64 -220 0
219 -16 -80 0
219 -68 -16 0
219 68 -80 0
22 -23 0
22 -26 0
220 -16 -221 0
220 -71 -16 0
220 71 -221 0
221 -222 -223 0
221 -74 -222 0
221 74 -223 0
222 -13 -80 0
222 -77 -13 0
222 77 -80 0
223 -16 -224 0
223 -80 -16 0
223 80 -224 0
224 -16 -225 0
224 -83 -16 0
224 83 -225 0
225 -219 -226 0
225 -86 -219 0
225 86 -226 0
226 -16 -227 0
226 -88 -16 0
226 88 -227 0
227 -228 -80 0
227 -90 -228 0
227 90 -80 0
228 -16 -80 0
228 -77 -16 0
228 77 -80 0
229 -230 -92 0
229 -92 -248 0
229 230 -248 0
23 24 0
230 -22 -231 0
230 -231 -83 0
230 22 -83 0
231 -16 -232 0
231 -30 -16 0
231 30 -232 0
232 -233 -83 0
232 -32 -233 0
232 32 -83 0
233 -16 -234 0
233 -35 -16 0
233 35 -234 0
234 -235 -236 0
234 -47 -235 0
234 47 -236 0
235 -16 -83 0
235 -52 -16 0
235 52 -83 0
236 -16 -237 0
236 -55 -16 0
236 55 -237 0
237 -16 -238 0
237 -60 -16 0
237 60 -238 0
238 -239 -240 0
238 -64 -239 0
238 64 -240 0
239 -16 -83 0
239 -68 -16 0
239 68 -83 0
24 -6 -25 0
24 6 25 0
240 -16 -241 0
240 -71 -16 0
240 71 -241 0
241 -242 -243 0
241 -74 -242 0
241 74 -243 0
242 -16 -83 0
242 -77 -16 0
242 77 -83 0
243 -13 -244 0
243 -80 -13 0
243 80 -244 0
244 -16 -245 0
244 -83 -16 0
244 83 -245 0
245 -239 -246 0
245 -86 -239 0
245 86 -246 0
246 -16 -247 0
246 -88 -16 0
246 88 -247 0
247 -242 -83 0
247 -90 -242 0
247 90 -83 0
248 -249 -92 0
248 -92 -267 0
248 249 -267 0
249 -22 -250 0
249 -250 -86 0
249 22 -86 0
250 -16 -251 0
250 -30 -16 0
250 30 -251 0
251 -252 -86 0
251 -32 -252 0
251 32 -86 0
252 -16 -253 0
252 -35 -16 0
252 35 -253 0
253 -254 -255 0
253 -47 -254 0
253 47 -255 0
254 -16 -86 0
254 -52 -16 0
254 52 -86 0
255 -16 -256 0
255 -55 -16 0
255 55 -256 0
256 -16 -257 0
256 -60 -16 0
256 60 -257 0
257 -258 -259 0
257 -64 -258 0
257 64 -259 0
258 -16 -86 0
258 -68 -16 0
258 68 -86 0
259 -16 -260 0
259 -71 -16 0
259 71 -260 0
26 27 0
260 -261 -262 0
260 -74 -261 0
260 74 -262 0
261 -16 -86 0
261 -77 -16 0
261 77 -86 0
262 -16 -263 0
262 -80 -16 0
262 80 -263 0
263 -13 -264 0
263 -83 -13 0
263 83 -264 0
264 -258 -265 0
264 -86 -258 0
264 86 -265 0
265 -16 -266 0
265 -88 -16 0
265 88 -266 0
266 -261 -86 0
266 -90 -261 0
266 90 -86 0
267 -268 -287 0
267 -287 -14 0
267 268 -14 0
268 -22 -269 0
268 -269 -88 0
268 22 -88 0
269 -16 -270 0
269 -30 -16 0
269 30 -270 0
27 -10 -28 0
27 10 28 0
270 -271 -88 0
270 -32 -271 0
270 32 -88 0
271 -16 -272 0
271 -35 -16 0
271 35 -272 0
272 -273 -274 0
272 -47 -273 0
272 47 -274 0
273 -16 -88 0
273 -52 -16 0
273 52 -88 0
274 -16 -275 0
274 -55 -16 0
274 55 -275 0
275 -16 -276 0
275 -60 -16 0
275 60 -276 0
276 -277 -278 0
276 -64 -277 0
276 64 -278 0
277 -16 -88 0
277 -68 -16 0
277 68 -88 0
278 -16 -279 0
278 -71 -16 0
278 71 -279 0
279 -280 -281 0
279 -74 -280 0
279 74 -281 0
280 -16 -88 0
280 -77 -16 0
280 77 -88 0
281 -16 -282 0
281 -80 -16 0
281 80 -282 0
282 -16 -283 0
282 -83 -16 0
282 83 -283 0
283 -284 -285 0
283 -86 -284 0
283 86 -285 0
284 -13 -88 0
284 -68 -13 0
284 68 -88 0
285 -16 -286 0
285 -88 -16 0
285 88 -286 0
286 -280 -88 0
286 -90 -280 0
286 90 -88 0
287 -15 -13 0
287 15 13 0
29 -13 -31 0
29 -30 -13 0
29 30 -31 0
3 4 0
30 -10 -13 0
30 10 13 0
31 -32 -34 0
31 -34 -35 0
31 32 -35 0
32 -23 -33 0
33 -6 -13 0
33 6 13 0
34 -16 -46 0
34 -35 -16 0
34 35 -46 0
35 -36 -44 0
36 -37 -42 0
37 -38 -40 0
38 -39 -16 0
38 39 16 0
4 -5 -6 0
4 5 6 0
40 -41 -16 0
40 41 16 0
42 -43 -16 0
42 43 16 0
44 -45 -16 0
44 45 16 0
46 -47 -51 0
46 -51 -54 0
46 47 -54 0
47 -48 -44 0
48 -49 -42 0
49 -50 -40 0
50 -39 -13 0
50 39 13 0
51 -16 -35 0
51 -52 -16 0
51 52 -35 0
52 -53 -13 0
52 53 13 0
54 -16 -59 0
54 -55 -16 0
54 55 -59 0
55 -56 -44 0
56 -57 -42 0
57 -38 -58 0
58 -41 -13 0
58 41 13 0
59 -16 -63 0
59 -60 -16 0
59 60 -63 0
60 -61 -44 0
61 -62 -42 0
62 -50 -58 0
63 -64 -67 0
63 -67 -70 0
63 64 -70 0
64 -65 -44 0
65 -37 -66 0
66 -43 -13 0
66 43 13 0
67 -16 -35 0
67 -68 -16 0
67 68 -35 0
68 -69 -13 0
68 69 13 0
7 8 0
70 -16 -73 0
70 -71 -16 0
70 71 -73 0
71 -72 -44 0
72 -49 -66 0
73 -74 -76 0
73 -76 -79 0
73 74 -79 0
74 -56 -75 0
75 -45 -13 0
75 45 13 0
76 -16 -35 0
76 -77 -16 0
76 77 -35 0
77 -78 -13 0
77 78 13 0
79 -16 -82 0
79 -80 -16 0
79 80 -82 0
8 -9 -10 0
8 9 10 0
80 -81 -44 0
81 -57 -66 0
82 -16 -85 0
82 -83 -16 0
82 83 -85 0
83 -84 -44 0
84 -62 -66 0
85 -67 -87 0
85 -86 -67 0
85 86 -87 0
86 -36 -75 0
87 -16 -89 0
87 -88 -16 0
87 88 -89 0
88 -48 -75 0
89 -90 -91 0
89 -91 -35 0
89 90 -35 0
90 -61 -75 0
91 -13 -35 0
91 -77 -13 0
91 77 -35 0
92 -15 -93 0
92 15 93 0
94 -92 -113 0
94 -95 -92 0
94 95 -113 0
95 -22 -96 0
95 -96 -47 0
95 22 -47 0
96 -16 -97 0
96 -30 -16 0
96 30 -97 0
97 -32 -98 0
97 -98 -47 0
97 32 -47 0
98 -13 -99 0
98 -35 -13 0
98 35 -99 0
99 -100 -101 0
99 -47 -100 0
99 47 -101 0
